67 29 
56 71 
20 86 
87 58 
43 10 
48 80 
58 7 
15 88 
82 23 
5 29 
17 65 
37 83 
23 52 
82 73 
76 55 
43 95 
84 51 
18 56 
37 6 
66 32 
68 15 
13 26 
74 28 
67 56 
3 72 
37 21 
37 74 
56 13 
78 38 
86 6 
